Results/Experiment 1 Results/Existing Benchmark/RES_60/i-60-100-14.txt
solutions: 5 nodes: 13  modelTime: 117  solveTime: 22  totalTime: 149  modelSize: 7853  readTime: 10 matchingSize: 30
