Results/Experiment 2 Results/Existing Benchmark/i-60-100-14.lp
clingo version 5.4.0
Reading from tempSRTISolver.lp ...
Solving...
Answer: 1
matched(15,2) matched(10,3) matched(29,4) matched(47,5) matched(22,6) matched(14,7) matched(11,8) matched(35,9) matched(3,10) matched(8,11) matched(32,12) matched(52,13) matched(7,14) matched(2,15) matched(46,16) matched(31,17) matched(28,18) matched(54,19) matched(60,20) matched(33,21) matched(6,22) matched(43,23) matched(57,24) matched(49,25) matched(39,26) matched(42,27) matched(18,28) matched(4,29) matched(59,30) matched(17,31) matched(12,32) matched(21,33) matched(51,34) matched(9,35) matched(40,36) matched(38,37) matched(37,38) matched(26,39) matched(36,40) matched(45,41) matched(27,42) matched(23,43) matched(56,44) matched(41,45) matched(16,46) matched(5,47) matched(50,48) matched(25,49) matched(48,50) matched(34,51) matched(13,52) matched(55,53) matched(19,54) matched(53,55) matched(44,56) matched(24,57) matched(1,58) matched(30,59) matched(20,60) matched(58,1)
Optimization: 461
Answer: 2
matched(15,2) matched(10,3) matched(29,4) matched(47,5) matched(22,6) matched(14,7) matched(11,8) matched(35,9) matched(3,10) matched(8,11) matched(32,12) matched(52,13) matched(7,14) matched(2,15) matched(46,16) matched(31,17) matched(28,18) matched(54,19) matched(60,20) matched(33,21) matched(6,22) matched(43,23) matched(57,24) matched(49,25) matched(39,26) matched(42,27) matched(18,28) matched(4,29) matched(59,30) matched(17,31) matched(12,32) matched(21,33) matched(51,34) matched(9,35) matched(40,36) matched(1,37) matched(58,38) matched(26,39) matched(36,40) matched(45,41) matched(27,42) matched(23,43) matched(56,44) matched(41,45) matched(16,46) matched(5,47) matched(50,48) matched(25,49) matched(48,50) matched(34,51) matched(13,52) matched(55,53) matched(19,54) matched(53,55) matched(44,56) matched(24,57) matched(38,58) matched(30,59) matched(20,60) matched(37,1)
Optimization: 460
Answer: 3
matched(15,2) matched(10,3) matched(29,4) matched(47,5) matched(30,6) matched(59,7) matched(11,8) matched(35,9) matched(3,10) matched(8,11) matched(32,12) matched(52,13) matched(18,14) matched(2,15) matched(46,16) matched(31,17) matched(14,18) matched(54,19) matched(60,20) matched(33,21) matched(26,22) matched(43,23) matched(28,24) matched(49,25) matched(22,26) matched(42,27) matched(24,28) matched(4,29) matched(6,30) matched(17,31) matched(12,32) matched(21,33) matched(51,34) matched(9,35) matched(40,36) matched(1,37) matched(58,38) matched(57,39) matched(36,40) matched(45,41) matched(27,42) matched(23,43) matched(56,44) matched(41,45) matched(16,46) matched(5,47) matched(50,48) matched(25,49) matched(48,50) matched(34,51) matched(13,52) matched(55,53) matched(19,54) matched(53,55) matched(44,56) matched(39,57) matched(38,58) matched(7,59) matched(20,60) matched(37,1)
Optimization: 442
OPTIMUM FOUND

Models       : 3
  Optimum    : yes
Optimization : 442
Calls        : 1
Time         : 7.902s (Solving: 0.49s 1st Model: 0.21s Unsat: 0.24s)
CPU Time     : 7.901s
